NAME : sample6
COMMENT : Sample dataset with 6 nodes
COMMENT : Derived from Zainab
TYPE : TSP
DIMENSION : 6
EDGE_WEIGHT_TYPE : EUC_2D
NODE_COORD_SECTION
1 12.0000 18.0000
2 17.0000 13.0000
3 20.0000 14.0000
4 23.0000 11.0000
5 10.0000 6.0000
6 20.0000 10.0000
EOF
